(set-info :source |printed by MathSAT|)
(declare-fun |.x{113}| () Int)
(declare-fun |.y{12}| () Int)
(declare-fun |.y{10}| () Int)
(declare-fun |.y{13}| () Int)
(declare-fun |.x{114}| () (Array Int Int))
(declare-fun |.y{14}| () (Array Int Int))
(declare-fun |.x{117}| () Int)
(declare-fun |.y{15}| () Int)
(declare-fun |.y{11}| () Int)
(declare-fun |.y{16}| () Int)
(declare-fun |.x{118}| () (Array Int Int))
(declare-fun |.y{17}| () (Array Int Int))
(declare-fun |.x{107}| () Int)
(declare-fun |.y{18}| () Int)
(declare-fun |.x{116}| () Int)
(declare-fun |.y{19}| () Int)
(declare-fun |.x{108}| () Int)
(declare-fun |.y{20}| () Int)
(declare-fun |.loc{3}| () Bool)
(declare-fun |.loc{5}| () Bool)
(declare-fun |.loc{4}| () Bool)
(declare-fun |.loc{6}| () Bool)
(declare-fun |.x{111}| () Int)
(declare-fun |.x{112}| () Int)
(declare-fun |.x{115}| () Int)
(declare-fun |.x{119}| () Int)
(define-fun .def_26 () Bool (! |.loc{3}| :next |.loc{5}|))
(define-fun .def_106 () Bool (not .def_26))
(define-fun .def_28 () Bool (! |.loc{4}| :next |.loc{6}|))
(define-fun .def_34 () Bool (not .def_28))
(define-fun .def_205 () Bool (! (and .def_34 .def_106) :init true))
(define-fun .def_12 () (Array Int Int) (! |.x{114}| :next |.y{14}|))
(define-fun .def_150 () Int (select .def_12 |.x{115}|))
(define-fun .def_18 () (Array Int Int) (! |.x{118}| :next |.y{17}|))
(define-fun .def_149 () Int (select .def_18 |.x{119}|))
(define-fun .def_151 () Bool (= .def_149 .def_150))
(define-fun .def_193 () Bool (not .def_151))
(define-fun .def_118 () Int (* (- 1) |.x{119}|))
(define-fun .def_22 () Int (! |.x{116}| :next |.y{19}|))
(define-fun .def_121 () Int (+ .def_22 .def_118))
(define-fun .def_14 () Int (! |.x{117}| :next |.y{15}|))
(define-fun .def_122 () Int (+ .def_14 .def_121))
(define-fun .def_123 () Bool (= .def_122 0))
(define-fun .def_115 () Bool (<= |.x{119}| 0))
(define-fun .def_116 () Bool (not .def_115))
(define-fun .def_31 () Bool (<= .def_14 0))
(define-fun .def_117 () Bool (or .def_31 .def_116))
(define-fun .def_124 () Bool (and .def_117 .def_123))
(define-fun .def_32 () Bool (not .def_31))
(define-fun .def_188 () Bool (and .def_32 .def_124))
(define-fun .def_189 () Bool (and |.loc{5}| .def_188))
(define-fun .def_20 () Int (! |.x{107}| :next |.y{18}|))
(define-fun .def_24 () Int (! |.x{108}| :next |.y{20}|))
(define-fun .def_130 () Bool (<= .def_24 .def_20))
(define-fun .def_131 () Bool (not .def_130))
(define-fun .def_190 () Bool (and .def_131 .def_189))
(define-fun .def_42 () Int (* (- 1) |.x{111}|))
(define-fun .def_137 () Int (* 2 .def_22))
(define-fun .def_138 () Int (+ .def_137 .def_42))
(define-fun .def_139 () Bool (= .def_138 0))
(define-fun .def_191 () Bool (and .def_139 .def_190))
(define-fun .def_61 () Int (* (- 1) |.x{112}|))
(define-fun .def_146 () Int (+ |.x{111}| .def_61))
(define-fun .def_147 () Bool (= .def_146 (- 1)))
(define-fun .def_192 () Bool (and .def_147 .def_191))
(define-fun .def_194 () Bool (and .def_192 .def_193))
(define-fun .def_195 () Bool (and .def_28 .def_194))
(define-fun .def_196 () Bool (and .def_106 .def_195))
(define-fun .def_155 () Bool (<= |.x{115}| 0))
(define-fun .def_156 () Bool (not .def_155))
(define-fun .def_8 () Int (! |.x{113}| :next |.y{12}|))
(define-fun .def_49 () Bool (<= .def_8 0))
(define-fun .def_157 () Bool (or .def_49 .def_156))
(define-fun .def_197 () Bool (and .def_157 .def_196))
(define-fun .def_75 () Bool (not .def_49))
(define-fun .def_198 () Bool (and .def_75 .def_197))
(define-fun .def_164 () Int (* (- 1) |.x{115}|))
(define-fun .def_167 () Int (+ |.x{112}| .def_164))
(define-fun .def_168 () Int (+ .def_8 .def_167))
(define-fun .def_169 () Bool (= .def_168 0))
(define-fun .def_199 () Bool (and .def_169 .def_198))
(define-fun .def_186 () Bool (= .def_20 |.y{20}|))
(define-fun .def_178 () Bool (= |.y{18}| 1))
(define-fun .def_176 () Bool (= |.y{19}| 0))
(define-fun .def_125 () Bool (not |.loc{5}|))
(define-fun .def_175 () Bool (and .def_34 .def_125))
(define-fun .def_177 () Bool (and .def_175 .def_176))
(define-fun .def_179 () Bool (and .def_177 .def_178))
(define-fun .def_10 () Int (! |.y{10}| :next |.y{13}|))
(define-fun .def_93 () Bool (<= .def_20 .def_10))
(define-fun .def_180 () Bool (and .def_93 .def_179))
(define-fun .def_52 () Bool (= .def_8 |.y{12}|))
(define-fun .def_181 () Bool (and .def_52 .def_180))
(define-fun .def_141 () Bool (= .def_12 |.y{14}|))
(define-fun .def_182 () Bool (and .def_141 .def_181))
(define-fun .def_54 () Bool (= .def_14 |.y{15}|))
(define-fun .def_183 () Bool (and .def_54 .def_182))
(define-fun .def_144 () Bool (= .def_18 |.y{17}|))
(define-fun .def_184 () Bool (and .def_144 .def_183))
(define-fun .def_185 () Bool (and .def_26 .def_184))
(define-fun .def_187 () Bool (and .def_185 .def_186))
(define-fun .def_200 () Bool (or .def_187 .def_199))
(define-fun .def_171 () Int (* (- 1) |.y{19}|))
(define-fun .def_172 () Int (+ .def_22 .def_171))
(define-fun .def_173 () Bool (= .def_172 (- 1)))
(define-fun .def_159 () Int (* (- 1) |.y{18}|))
(define-fun .def_160 () Int (+ .def_20 .def_159))
(define-fun .def_161 () Bool (= .def_160 (- 2)))
(define-fun .def_127 () Bool (= .def_24 |.y{20}|))
(define-fun .def_126 () Bool (and .def_124 .def_125))
(define-fun .def_128 () Bool (and .def_126 .def_127))
(define-fun .def_129 () Bool (and .def_32 .def_128))
(define-fun .def_132 () Bool (and .def_129 .def_131))
(define-fun .def_133 () Bool (and .def_52 .def_132))
(define-fun .def_140 () Bool (and .def_133 .def_139))
(define-fun .def_142 () Bool (and .def_140 .def_141))
(define-fun .def_143 () Bool (and .def_54 .def_142))
(define-fun .def_145 () Bool (and .def_143 .def_144))
(define-fun .def_148 () Bool (and .def_145 .def_147))
(define-fun .def_152 () Bool (and .def_148 .def_151))
(define-fun .def_153 () Bool (and .def_28 .def_152))
(define-fun .def_154 () Bool (and .def_106 .def_153))
(define-fun .def_158 () Bool (and .def_154 .def_157))
(define-fun .def_162 () Bool (and .def_158 .def_161))
(define-fun .def_163 () Bool (and .def_75 .def_162))
(define-fun .def_170 () Bool (and .def_163 .def_169))
(define-fun .def_174 () Bool (and .def_170 .def_173))
(define-fun .def_201 () Bool (or .def_174 .def_200))
(define-fun .def_202 () Bool (and |.loc{6}| .def_201))
(define-fun .def_112 () Bool (= |.y{13}| 1))
(define-fun .def_109 () Bool (= |.y{16}| 0))
(define-fun .def_103 () Bool (<= |.y{15}| 0))
(define-fun .def_104 () Bool (not .def_103))
(define-fun .def_99 () Bool (<= |.y{18}| 0))
(define-fun .def_100 () Bool (not .def_99))
(define-fun .def_96 () Bool (<= |.y{12}| 0))
(define-fun .def_97 () Bool (not .def_96))
(define-fun .def_98 () Bool (and |.loc{5}| .def_97))
(define-fun .def_101 () Bool (and .def_98 .def_100))
(define-fun .def_102 () Bool (and .def_34 .def_101))
(define-fun .def_105 () Bool (and .def_102 .def_104))
(define-fun .def_107 () Bool (and .def_105 .def_106))
(define-fun .def_77 () Bool (not |.loc{6}|))
(define-fun .def_108 () Bool (and .def_77 .def_107))
(define-fun .def_110 () Bool (and .def_108 .def_109))
(define-fun .def_113 () Bool (and .def_110 .def_112))
(define-fun .def_203 () Bool (or .def_113 .def_202))
(define-fun .def_94 () Bool (not .def_93))
(define-fun .def_90 () (Array Int Int) (store .def_12 |.x{111}| |.x{115}|))
(define-fun .def_91 () Bool (= |.y{14}| .def_90))
(define-fun .def_88 () Bool (= .def_20 |.y{18}|))
(define-fun .def_85 () (Array Int Int) (store .def_18 |.x{112}| |.x{115}|))
(define-fun .def_86 () Bool (= |.y{17}| .def_85))
(define-fun .def_80 () Int (* (- 1) |.y{13}|))
(define-fun .def_81 () Int (+ .def_10 .def_80))
(define-fun .def_82 () Bool (= .def_81 (- 2)))
(define-fun .def_71 () Int (* (- 1) |.y{16}|))
(define-fun .def_16 () Int (! |.y{11}| :next |.y{16}|))
(define-fun .def_72 () Int (+ .def_16 .def_71))
(define-fun .def_73 () Bool (= .def_72 (- 1)))
(define-fun .def_67 () Bool (<= |.x{112}| 0))
(define-fun .def_68 () Bool (not .def_67))
(define-fun .def_69 () Bool (or .def_31 .def_68))
(define-fun .def_62 () Int (+ .def_16 .def_61))
(define-fun .def_63 () Int (+ .def_14 .def_62))
(define-fun .def_64 () Bool (= .def_63 0))
(define-fun .def_47 () Bool (<= |.x{111}| 0))
(define-fun .def_48 () Bool (not .def_47))
(define-fun .def_50 () Bool (or .def_48 .def_49))
(define-fun .def_43 () Int (+ .def_10 .def_42))
(define-fun .def_44 () Int (+ .def_8 .def_43))
(define-fun .def_45 () Bool (= .def_44 0))
(define-fun .def_33 () Bool (and |.loc{5}| .def_32))
(define-fun .def_35 () Bool (and .def_33 .def_34))
(define-fun .def_46 () Bool (and .def_35 .def_45))
(define-fun .def_51 () Bool (and .def_46 .def_50))
(define-fun .def_53 () Bool (and .def_51 .def_52))
(define-fun .def_55 () Bool (and .def_53 .def_54))
(define-fun .def_65 () Bool (and .def_55 .def_64))
(define-fun .def_66 () Bool (and .def_26 .def_65))
(define-fun .def_70 () Bool (and .def_66 .def_69))
(define-fun .def_74 () Bool (and .def_70 .def_73))
(define-fun .def_76 () Bool (and .def_74 .def_75))
(define-fun .def_78 () Bool (and .def_76 .def_77))
(define-fun .def_83 () Bool (and .def_78 .def_82))
(define-fun .def_87 () Bool (and .def_83 .def_86))
(define-fun .def_89 () Bool (and .def_87 .def_88))
(define-fun .def_92 () Bool (and .def_89 .def_91))
(define-fun .def_95 () Bool (and .def_92 .def_94))
(define-fun .def_204 () Bool (! (or .def_95 .def_203) :trans true))
(define-fun .def_206 () Bool (and .def_26 .def_28))
(define-fun .def_207 () Bool (! (not .def_206) :invar-property 0))
(assert true)
